1 3 100 236781.10
1 3 200 246172.95
1 3 300 245054.26
2 3 100 282699.29
2 3 200 289607.69
2 3 300 288455.28
3 3 100 283502.36
3 3 200 287337.19
3 3 300 286995.20
4 3 100 284057.08
4 3 200 287926.17
4 3 300 289543.63
5 3 100 277994.98
5 3 200 277465.20
5 3 300 279742.74
